p cnf 822 2327
c ind 819 778 793 798 803 780 784 789 790 791 0
c ind 792 800 801 802 785 805 807 809 813 815 0
c ind 754 804 806 808 810 811 812 814 750 755 0
c ind 774 779 820 665 720 729 739 744 762 799 0
c ind 678 694 732 794 713 725 758 768 703 766 0
c ind 818 816 817 721 759 764 782 787 648 767 0
c ind 769 777 786 797 659 679 726 745 748 763 0
c ind 781 788 589 611 614 624 657 661 666 675 0
c ind 684 697 705 708 710 711 752 753 760 772 0
c ind 795 796 629 635 639 645 669 692 693 696 0
c ind 706 717 730 741 742 743 775 783 608 618 0
c ind 632 654 662 664 667 674 681 682 683 687 0
c ind 689 699 709 740 751 771 773 594 660 670 0
c ind 677 685 686 688 690 718 722 728 736 738 0
c ind 582 597 598 619 620 622 623 651 673 714 0
c ind 719 727 747 595 596 605 621 637 638 640 0
c ind 641 643 644 672 704 731 734 737 585 586 0
c ind 599 616 617 642 668 695 700 701 712 724 0
c ind 776 587 588 590 591 592 593 626 627 628 0
c ind 630 631 633 634 649 650 652 653 655 656 0
c ind 715 735 746 583 606 607 609 610 612 613 0
c ind 647 680 702 723 733 761 770 584 749 765 0
c ind 581 716 707 615 671 698 663 676 636 646 0
c ind 691 600 658 625 757 756 601 602 603 604 0
c ind 1 0
c ret 519 528 529 530 531 532 533 534 535 536 0
c ret 537 520 538 539 540 541 542 543 544 545 0
c ret 546 521 547 548 549 550 551 552 553 554 0
c ret 555 556 522 557 558 559 560 561 562 563 0
c ret 564 565 523 566 567 568 569 570 571 572 0
c ret 573 524 574 575 576 577 578 579 580 525 0
c ret 526 527 0
2 -3 -89 -148 -237 0
-2 237 0
-2 3 0
-2 148 0
-2 89 0
3 -4 -45 -66 -76 0
-3 76 0
-3 4 0
-3 66 0
-3 45 0
4 -5 20 26 -29 0
-4 29 0
-4 -26 0
-4 5 0
-4 -20 0
5 -6 14 0
5 -10 -12 14 0
-5 -14 0
-5 6 12 0
-5 6 10 0
6 -7 -8 529 0
6 -7 -8 -643 0
-6 8 0
-6 7 0
-6 -529 643 0
7 530 548 0
7 -630 -637 0
7 548 -637 0
7 530 -630 0
-7 -548 630 0
-7 -530 637 0
8 -9 557 -582 0
8 -9 -582 -627 0
-8 9 0
-8 582 0
-8 -557 627 0
9 528 539 0
9 -633 -640 0
9 539 -640 0
9 528 -633 0
-9 -539 633 0
-9 -528 640 0
10 -11 -634 0
10 -11 538 0
-10 11 0
-10 -538 634 0
11 525 527 0
11 -638 -644 0
11 527 -644 0
11 525 -638 0
-11 -527 638 0
-11 -525 644 0
12 -13 526 582 0
12 -13 582 -641 0
-12 13 0
-12 -582 0
-12 -526 641 0
13 547 556 0
13 -628 -631 0
13 556 -631 0
13 547 -628 0
-13 -556 628 0
-13 -547 631 0
14 15 -18 0
14 15 718 0
14 15 719 0
-14 -15 0
-14 18 -718 -719 0
15 -16 -17 0
-15 16 0
-15 17 0
16 603 604 0
-16 -603 0
-16 -604 0
17 601 602 0
-17 -601 0
-17 -602 0
18 19 724 0
18 19 726 0
-18 -19 0
-18 -724 -726 0
19 602 603 604 0
-19 -602 0
-19 -604 0
-19 -603 0
20 24 594 0
20 21 594 0
20 25 594 0
-20 -594 0
-20 -21 -24 -25 0
21 -22 561 0
-21 -561 0
-21 22 0
22 -23 544 0
-22 -544 0
-22 23 0
23 545 546 0
-23 -545 0
-23 -546 0
24 542 590 591 0
-24 -542 0
-24 -591 0
-24 -590 0
25 568 577 592 593 0
-25 -593 0
-25 -592 0
-25 -568 0
-25 -577 0
26 27 745 0
26 27 747 0
26 27 743 0
-26 -27 0
-26 -743 -745 -747 0
27 -28 -745 0
27 -28 636 744 0
-27 28 0
-27 -744 745 0
-27 -636 745 0
-15 28 -743 0
-15 28 615 676 0
15 -28 0
-28 -676 743 0
-28 -615 743 0
29 35 -39 -777 0
29 -30 35 -39 0
-29 39 0
-29 -35 0
-29 30 777 0
30 -31 -33 -34 612 0
-30 -612 0
-30 34 0
-30 33 0
-30 31 0
31 -32 534 537 559 0
-31 32 0
-31 -559 0
-31 -534 0
-31 -537 0
32 531 535 536 0
-32 -531 0
-32 -536 0
-32 -535 0
33 567 613 0
-33 -567 0
-33 -613 0
34 622 623 0
-34 -622 0
-34 -623 0
35 37 818 0
35 -531 818 0
35 36 818 0
-35 -818 0
-35 -36 -37 531 0
36 535 536 0
-36 -535 0
-36 -536 0
37 -38 533 537 689 0
-37 38 0
-37 -689 0
-37 -533 0
-37 -537 0
38 532 534 0
-38 -532 0
-38 -534 0
39 40 -702 0
39 40 -44 676 0
-39 -40 0
-39 -676 702 0
-39 44 702 0
40 41 817 0
24 40 817 0
40 42 817 0
-40 -817 0
-24 -40 -41 -42 0
-22 41 543 0
-41 -543 0
22 -41 0
42 -43 540 541 0
-42 43 0
-42 -541 0
-42 -540 0
43 685 686 0
-43 -685 0
-43 -686 0
-19 44 601 663 0
19 -44 0
-44 -663 0
-44 -601 0
45 -46 57 -62 0
45 -46 57 -675 0
-45 46 0
-45 -57 0
-45 62 675 0
46 47 -589 0
46 47 -53 -54 0
-46 -47 0
-46 53 589 0
-46 54 589 0
47 49 645 0
47 48 645 0
-47 -645 0
-47 -48 -49 0
48 534 535 536 558 0
-48 -558 0
-48 -536 0
-48 -534 0
-48 -535 0
49 -50 -51 -52 533 0
-49 -533 0
-49 52 0
-49 51 0
-49 50 0
50 595 596 0
-50 -595 0
-50 -596 0
51 567 570 0
-51 -567 0
-51 -570 0
52 643 644 0
-52 -643 0
-52 -644 0
53 578 587 588 0
-53 -578 0
-53 -588 0
-53 -587 0
54 -55 -56 551 553 0
-54 -551 0
-54 56 0
-54 55 0
-54 -553 0
55 554 555 564 569 0
-55 -569 0
-55 -564 0
-55 -554 0
-55 -555 0
56 585 586 0
-56 -585 0
-56 -586 0
57 59 684 0
57 -565 684 0
57 58 684 0
-57 -684 0
-57 -58 -59 565 0
58 682 683 0
-58 -682 0
-58 -683 0
59 -60 -61 554 575 0
-59 -554 0
-59 61 0
-59 60 0
-59 -575 0
60 555 564 649 650 0
-60 -650 0
-60 -649 0
-60 -555 0
-60 -564 0
61 550 552 0
-61 -550 0
-61 -552 0
-52 62 -63 -64 -65 0
-62 65 0
52 -62 0
-62 64 0
-62 63 0
63 534 558 559 0
-63 -534 0
-63 -559 0
-63 -558 0
64 567 573 655 656 0
-64 -656 0
-64 -655 0
-64 -567 0
-64 -573 0
65 536 537 0
-65 -536 0
-65 -537 0
66 67 -654 0
66 67 -70 -72 0
-66 -67 0
-66 70 654 0
-66 72 654 0
67 68 753 0
64 67 753 0
67 69 753 0
-67 -753 0
-64 -67 -68 -69 0
68 531 559 576 0
-68 -531 0
-68 -576 0
-68 -559 0
69 536 537 597 598 0
-69 -598 0
-69 -597 0
-69 -536 0
-69 -537 0
70 -71 543 0
-70 -543 0
-70 71 0
71 561 562 0
-71 -561 0
-71 -562 0
72 -73 -74 546 652 0
-72 -546 0
-72 74 0
-72 73 0
-72 -652 0
73 619 620 0
-73 -619 0
-73 -620 0
74 -75 563 568 0
-74 75 0
-74 -568 0
-74 -563 0
75 574 653 0
-75 -574 0
-75 -653 0
76 80 -751 0
76 77 -85 0
76 80 -85 0
76 77 -751 0
-76 -77 -80 0
-76 85 751 0
77 -78 522 0
-77 -522 0
-77 78 0
78 -79 520 0
-78 -520 0
-78 79 0
79 521 523 524 0
-79 -521 0
-79 -524 0
-79 -523 0
80 -81 -82 -83 -84 0
-80 84 0
-80 81 0
-80 83 0
-80 82 0
81 579 -679 -810 -811 0
-81 -579 0
-81 811 0
-81 810 0
-81 679 0
82 -647 -666 0
-82 647 0
-82 666 0
83 -756 -757 0
-83 756 0
-83 757 0
84 -605 -626 0
-84 605 0
-84 626 0
-53 85 -86 -87 -88 0
-85 88 0
53 -85 0
-85 87 0
-85 86 0
86 649 650 0
-86 -649 0
-86 -650 0
87 555 565 569 575 0
-87 -575 0
-87 -569 0
-87 -555 0
-87 -565 0
88 549 554 0
-88 -549 0
-88 -554 0
89 -90 -107 -117 -132 0
-89 132 0
-89 90 0
-89 117 0
-89 107 0
90 -91 102 -661 0
90 -91 -99 102 0
-90 91 0
-90 -102 0
-90 99 661 0
91 97 -611 0
91 -92 -93 97 0
-91 -97 0
-91 93 611 0
-91 92 611 0
92 562 568 592 593 0
-92 -593 0
-92 -592 0
-92 -562 0
-92 -568 0
93 -94 -95 -96 577 0
-93 -577 0
-93 96 0
-93 95 0
-93 94 0
94 609 610 0
-94 -609 0
-94 -610 0
95 544 545 0
-95 -544 0
-95 -545 0
96 561 571 0
-96 -561 0
-96 -571 0
73 97 621 0
21 97 621 0
97 98 621 0
-97 -621 0
-21 -73 -97 -98 0
98 542 543 568 591 0
-98 -591 0
-98 -568 0
-98 -542 0
-98 -543 0
-70 -73 99 -100 -101 0
-99 101 0
70 -99 0
-99 100 0
73 -99 0
100 544 545 568 571 0
-100 -571 0
-100 -568 0
-100 -544 0
-100 -545 0
101 630 631 0
-101 -630 0
-101 -631 0
102 104 639 0
102 103 639 0
102 106 639 0
-102 -639 0
-102 -103 -104 -106 0
103 554 564 637 638 0
-103 -638 0
-103 -637 0
-103 -554 0
-103 -564 0
104 -105 551 0
-104 -551 0
-104 105 0
105 552 553 0
-105 -552 0
-105 -553 0
-56 106 569 572 0
56 -106 0
-106 -572 0
-106 -569 0
107 -108 115 -624 0
107 -108 -112 115 0
-107 108 0
-107 -115 0
-107 112 624 0
108 111 -734 0
108 -109 111 707 0
-108 -111 0
-108 -707 734 0
-108 109 734 0
109 -110 600 604 0
-109 110 0
-109 -604 0
-109 -600 0
-17 110 603 0
-110 -603 0
17 -110 0
109 111 659 0
111 -658 659 0
-111 -659 0
-109 -111 658 0
-34 -50 112 -113 534 0
-112 -534 0
-112 113 0
50 -112 0
34 -112 0
-65 113 -114 558 567 0
-113 -558 0
-113 114 0
65 -113 0
-113 -567 0
114 533 535 0
-114 -533 0
-114 -535 0
115 116 618 0
115 -551 618 0
105 115 618 0
-115 -618 0
-105 -115 -116 551 0
-55 -56 116 616 617 0
-116 -616 0
56 -116 0
55 -116 0
-116 -617 0
117 -118 129 -614 0
117 -118 -125 129 0
-117 118 0
-117 -129 0
-117 125 614 0
118 120 -660 0
118 -119 120 -123 0
-118 -120 0
-118 119 660 0
-118 123 660 0
119 554 564 565 569 0
-119 -569 0
-119 -565 0
-119 -554 0
-119 -564 0
120 121 629 0
119 120 629 0
120 122 629 0
-120 -629 0
-119 -120 -121 -122 0
121 587 627 628 0
-121 -587 0
-121 -628 0
-121 -627 0
122 553 555 578 588 0
-122 -588 0
-122 -578 0
-122 -553 0
-122 -555 0
123 -124 617 627 628 0
-123 124 0
-123 -628 0
-123 -617 0
-123 -627 0
-105 124 572 616 0
105 -124 0
-124 -616 0
-124 -572 0
125 -126 576 612 613 0
-125 126 0
-125 -613 0
-125 -576 0
-125 -612 0
-36 -51 126 -127 -128 0
-126 128 0
36 -126 0
-126 127 0
51 -126 0
127 558 559 0
-127 -558 0
-127 -559 0
128 597 598 0
-128 -597 0
-128 -598 0
129 130 816 0
129 -555 816 0
88 129 816 0
-129 -816 0
-88 -129 -130 555 0
-56 -58 -61 130 -131 0
61 -130 0
56 -130 0
58 -130 0
-130 131 0
131 551 553 0
-131 -551 0
-131 -553 0
132 -133 141 -143 0
132 -133 141 -635 0
-132 133 0
-132 -141 0
-132 143 635 0
133 135 -692 0
133 -134 135 691 0
-133 -135 0
-133 -691 692 0
-133 134 692 0
-15 134 646 0
-134 -646 0
15 -134 0
135 137 775 0
135 136 775 0
-135 -775 0
-135 -136 -137 0
-105 136 549 554 0
105 -136 0
-136 -554 0
-136 -549 0
137 -138 -139 -140 606 0
-137 -606 0
-137 140 0
-137 139 0
-137 138 0
138 555 565 0
-138 -555 0
-138 -565 0
139 616 617 0
-139 -616 0
-139 -617 0
140 569 607 0
-140 -569 0
-140 -607 0
119 141 608 0
53 141 608 0
141 142 608 0
-141 -608 0
-53 -119 -141 -142 0
142 553 572 606 607 0
-142 -607 0
-142 -606 0
-142 -553 0
-142 -572 0
143 -144 -145 -146 -147 0
-143 147 0
-143 144 0
-143 146 0
-143 145 0
144 535 536 537 558 0
-144 -558 0
-144 -537 0
-144 -535 0
-144 -536 0
145 559 567 597 0
-145 -559 0
-145 -597 0
-145 -567 0
146 633 634 0
-146 -633 0
-146 -634 0
147 576 598 0
-147 -576 0
-147 -598 0
148 -149 -156 -164 -185 0
-148 185 0
-148 149 0
-148 164 0
-148 156 0
149 -150 151 0
-134 149 151 663 0
-149 -151 0
-149 150 -663 0
134 -149 150 0
150 -664 -666 0
-19 150 -664 0
-150 664 0
19 -150 666 0
-79 151 -152 -154 -155 0
-151 155 0
79 -151 0
-151 154 0
-151 152 0
-83 152 -153 -759 -760 0
-152 153 0
-152 759 0
83 -152 0
-152 760 0
153 519 579 0
-153 -519 0
-153 -579 0
154 -648 -659 -664 0
-154 648 0
-154 659 0
-154 664 0
155 522 -785 -789 0
-155 789 0
-155 785 0
-155 -522 0
78 156 0
156 159 -522 0
156 157 159 0
-78 -156 -159 0
-78 -156 -157 522 0
-83 157 -158 519 -713 0
-157 -519 0
-157 158 0
83 -157 0
-157 713 0
158 -766 -794 -820 0
-158 766 0
-158 794 0
-158 820 0
159 -160 -161 -162 -163 0
-159 163 0
-159 160 0
-159 162 0
-159 161 0
160 -709 -710 -711 0
-160 709 0
-160 710 0
-160 711 0
-83 161 -804 -805 0
-161 804 0
-161 805 0
83 -161 0
162 519 580 0
-162 -519 0
-162 -580 0
163 -699 -708 0
-163 699 0
-163 708 0
164 -165 -170 -173 -181 0
-164 181 0
-164 165 0
-164 173 0
-164 170 0
165 169 -764 0
165 -166 169 744 0
-165 -169 0
-165 -744 764 0
-165 166 764 0
166 -167 604 0
-166 -604 0
-166 167 0
167 -168 602 603 0
-167 168 0
-167 -603 0
-167 -602 0
168 601 698 0
-168 -601 0
-168 -698 0
169 -703 728 0
15 169 728 0
169 -671 728 0
-169 -728 0
-15 -169 671 703 0
170 171 -742 0
-134 170 171 707 0
-170 -171 0
-170 -707 742 0
134 -170 742 0
15 171 172 0
171 172 -703 0
171 172 -707 0
-171 -172 0
-15 -171 703 707 0
172 -708 -709 0
-19 172 -708 0
-172 708 0
19 -172 709 0
173 -174 -674 0
173 -177 -706 0
173 -674 -706 0
173 -174 -177 0
-173 174 706 0
-173 177 674 0
-38 -144 174 -175 -176 0
-174 176 0
38 -174 0
-174 175 0
144 -174 0
175 559 612 613 0
-175 -559 0
-175 -613 0
-175 -612 0
176 688 689 0
-176 -688 0
-176 -689 0
177 -178 543 561 652 0
-177 178 0
-177 -652 0
-177 -543 0
-177 -561 0
178 -179 -180 562 568 0
-178 -562 0
-178 180 0
-178 179 0
-178 -568 0
-23 -75 179 0
23 -179 0
75 -179 0
180 640 641 0
-180 -640 0
-180 -641 0
181 184 -669 0
-70 181 -182 184 0
-181 -184 0
-181 182 669 0
70 -181 669 0
-180 182 -183 563 568 0
-182 -563 0
-182 183 0
180 -182 0
-182 -568 0
-94 183 544 546 0
94 -183 0
-183 -546 0
-183 -544 0
87 184 673 0
86 184 673 0
103 184 673 0
-184 -673 0
-86 -87 -103 -184 0
185 -186 -198 -215 -226 0
-185 226 0
-185 186 0
-185 215 0
-185 198 0
186 -187 191 -194 0
186 -187 191 -670 0
-186 187 0
-186 -191 0
-186 194 670 0
187 -188 -797 0
-15 187 -190 0
-15 187 -797 0
187 -188 -190 0
15 -187 188 0
-187 190 797 0
-19 188 -189 0
188 -189 -715 -779 0
-188 189 0
19 -188 715 0
19 -188 779 0
189 -710 -711 -786 -787 0
-189 787 0
-189 710 0
-189 786 0
-189 711 0
-31 -52 -146 190 567 0
-190 -567 0
146 -190 0
52 -190 0
31 -190 0
191 192 679 0
191 192 681 0
191 192 677 0
-191 -192 0
-191 -677 -679 -681 0
192 -193 -679 0
192 -193 636 678 0
-192 193 0
-192 -678 679 0
-192 -636 679 0
-15 193 -677 0
-15 193 600 676 0
15 -193 0
-193 -676 677 0
-193 -600 677 0
194 -195 534 535 612 0
-194 195 0
-194 -612 0
-194 -534 0
-194 -535 0
-33 -52 195 -196 -197 0
-195 197 0
33 -195 0
-195 196 0
52 -195 0
196 537 558 0
-196 -537 0
-196 -558 0
197 559 560 0
-197 -559 0
-197 -560 0
198 199 -207 -690 0
198 199 -203 -207 0
-198 207 0
-198 -199 0
-198 203 690 0
199 200 704 0
199 -565 704 0
58 199 704 0
-199 -704 0
-58 -199 -200 565 0
-61 200 -201 -202 607 0
-200 -607 0
-200 202 0
-200 201 0
61 -200 0
201 554 564 0
-201 -554 0
-201 -564 0
202 553 555 0
-202 -553 0
-202 -555 0
-176 203 -204 -205 -206 0
-203 206 0
-203 204 0
-203 205 0
176 -203 0
204 655 656 0
-204 -655 0
-204 -656 0
205 534 537 558 0
-205 -534 0
-205 -558 0
-205 -537 0
206 532 536 559 573 0
-206 -573 0
-206 -559 0
-206 -532 0
-206 -536 0
207 209 -748 0
207 -208 209 729 0
-207 -209 0
-207 -729 748 0
-207 208 748 0
-15 208 625 0
-208 -625 0
15 -208 0
209 210 213 0
209 210 212 0
209 210 214 0
-209 -210 0
-209 -212 -213 -214 0
210 -211 526 583 0
210 -211 583 -620 0
-210 211 0
-210 -583 0
-210 -526 620 0
211 527 538 0
211 -613 -617 0
211 538 -617 0
211 527 -613 0
-211 -538 613 0
-211 -527 617 0
212 539 -583 0
212 -583 -612 0
-212 583 0
-212 -539 612 0
213 548 557 0
213 -606 -609 0
213 557 -609 0
213 548 -606 0
-213 -557 606 0
-213 -548 609 0
214 528 530 0
214 -616 -619 0
214 530 -619 0
214 528 -616 0
-214 -530 616 0
-214 -528 619 0
215 216 -221 -697 0
215 216 -219 -221 0
-215 221 0
-215 -216 0
-215 219 697 0
216 217 642 0
216 -568 642 0
95 216 642 0
-216 -642 0
-95 -216 -217 568 0
-180 217 -218 561 571 0
-217 -561 0
180 -217 0
-217 218 0
-217 -571 0
218 590 591 0
-218 -590 0
-218 -591 0
-63 -146 -176 219 -220 0
-219 220 0
63 -219 0
176 -219 0
146 -219 0
220 532 535 537 560 0
-220 -560 0
-220 -537 0
-220 -532 0
-220 -535 0
221 222 -651 0
-60 221 222 -224 0
-221 -222 0
60 -221 651 0
-221 224 651 0
222 223 657 0
222 -534 657 0
196 222 657 0
-222 -657 0
-196 -222 -223 534 0
-34 -64 223 559 560 0
-223 -559 0
64 -223 0
34 -223 0
-223 -560 0
-139 224 -225 569 575 0
-224 -569 0
-224 225 0
139 -224 0
-224 -575 0
225 565 566 0
-225 -565 0
-225 -566 0
226 229 -233 -695 0
226 -227 229 -233 0
-226 233 0
-226 -229 0
-226 227 695 0
227 -228 566 627 628 0
-227 228 0
-227 -628 0
-227 -566 0
-227 -627 0
-58 -202 228 564 565 0
-228 -564 0
202 -228 0
58 -228 0
-228 -565 0
229 231 696 0
229 230 696 0
229 232 696 0
-229 -696 0
-229 -230 -231 -232 0
230 541 543 544 0
-230 -541 0
-230 -544 0
-230 -543 0
-71 231 630 631 0
71 -231 0
-231 -631 0
-231 -630 0
-43 232 546 563 0
43 -232 0
-232 -563 0
-232 -546 0
233 234 -752 0
-92 233 234 -236 0
-233 -234 0
92 -233 752 0
-233 236 752 0
234 235 705 0
230 234 705 0
-234 -705 0
-230 -234 -235 0
-23 -43 -71 -94 235 0
94 -235 0
23 -235 0
71 -235 0
43 -235 0
-179 236 540 577 652 0
179 -236 0
-236 -652 0
-236 -540 0
-236 -577 0
237 -238 -333 -402 -445 0
-237 445 0
-237 238 0
-237 402 0
-237 333 0
238 -239 -270 308 -323 0
-238 323 0
-238 239 0
-238 270 0
-238 -308 0
239 -240 -251 258 266 0
-239 251 0
-239 -266 0
-239 240 0
-239 -258 0
240 241 243 249 0
240 241 243 245 0
-240 -241 0
-240 -243 0
-240 -245 -249 0
241 242 693 0
241 -671 693 0
19 241 693 0
-241 -693 0
-19 -241 -242 671 0
242 601 658 0
-242 -601 0
-242 -658 0
243 244 781 0
243 -768 781 0
19 243 781 0
-243 -781 0
-19 -243 -244 768 0
244 601 691 0
-244 -601 0
-244 -691 0
-162 245 -246 -247 -248 0
-245 248 0
-245 246 0
-245 247 0
162 -245 0
246 523 524 0
-246 -523 0
-246 -524 0
247 -681 -692 0
-247 681 0
-247 692 0
248 -728 -730 0
-248 728 0
-248 730 0
249 -250 -757 -802 -803 0
-249 250 0
-249 757 0
-249 803 0
-249 802 0
250 520 579 -693 -756 0
-250 -520 0
-250 756 0
-250 693 0
-250 -579 0
251 252 -253 -605 0
-109 251 252 -253 0
-251 253 0
-251 -252 0
109 -251 605 0
15 252 755 0
252 -754 755 0
-252 -755 0
-15 -252 754 0
253 254 -716 0
-110 253 254 663 0
-253 -254 0
-253 -663 716 0
110 -253 716 0
254 255 257 0
254 255 -547 653 0
-254 -255 0
-254 -257 547 0
-254 -257 -653 0
255 -256 557 -584 0
255 -256 -584 -649 0
-255 256 0
-255 584 0
-255 -557 649 0
256 539 548 0
256 -652 -656 0
256 548 -656 0
256 539 -652 0
-256 -548 652 0
-256 -539 656 0
257 584 -655 0
257 538 584 0
-257 -584 0
-257 -538 655 0
-83 -153 258 259 521 0
-258 -521 0
-258 -259 0
153 -258 0
83 -258 0
259 261 262 0
259 260 263 0
259 261 263 0
259 260 262 0
-259 -260 -261 0
-259 -262 -263 0
260 522 524 580 0
-260 -522 0
-260 -580 0
-260 -524 0
261 -750 -766 -774 -779 0
-261 779 0
-261 750 0
-261 774 0
-261 766 0
262 -723 -724 -780 -784 0
-262 784 0
-262 723 0
-262 780 0
-262 724 0
263 -264 -265 580 -722 0
-263 -580 0
-263 265 0
-263 264 0
-263 722 0
264 -767 -769 0
-264 767 0
-264 769 0
265 522 523 0
-265 -522 0
-265 -523 0
266 -267 269 0
266 -268 269 0
19 266 269 0
-266 -269 0
-19 -266 267 268 0
168 267 723 0
267 -625 723 0
-267 -723 0
-168 -267 625 0
268 -601 730 0
268 -646 730 0
268 -729 730 0
-268 -730 0
-268 601 646 729 0
269 -723 -730 -733 0
-269 723 0
-269 730 0
-269 733 0
270 -271 -274 -278 -290 0
-270 290 0
-270 271 0
-270 278 0
-270 274 0
271 272 -632 0
-25 -231 271 272 0
-271 -272 0
231 -271 632 0
25 -271 632 0
19 272 273 0
272 273 -768 0
242 272 273 0
-272 -273 0
-19 -242 -272 768 0
273 -769 -771 0
-16 273 -769 0
-273 769 0
16 -273 771 0
274 275 -740 0
-110 274 275 739 0
-274 -275 0
-274 -739 740 0
110 -274 740 0
105 275 668 0
275 276 668 0
275 277 668 0
-275 -668 0
-105 -275 -276 -277 0
276 555 564 0
-276 -555 0
-276 -564 0
277 565 566 569 607 0
-277 -607 0
-277 -569 0
-277 -565 0
-277 -566 0
278 -279 285 -289 0
278 -279 285 -687 0
-278 279 0
-278 -285 0
-278 289 687 0
279 280 284 0
279 280 282 0
260 279 280 0
-279 -280 0
-260 -279 -282 -284 0
19 280 281 0
280 281 -758 0
242 280 281 0
-280 -281 0
-19 -242 -280 758 0
281 -759 -760 0
-16 281 -759 0
-281 759 0
16 -281 760 0
-83 282 -283 -741 -742 0
-282 283 0
-282 741 0
83 -282 0
-282 742 0
283 519 520 579 -743 0
-283 743 0
-283 -579 0
-283 -519 0
-283 -520 0
284 -771 -772 -792 -793 0
-284 793 0
-284 771 0
-284 792 0
-284 772 0
-79 285 -286 -287 -288 0
-285 288 0
79 -285 0
-285 287 0
-285 286 0
-83 286 580 -700 0
83 -286 0
-286 700 0
-286 -580 0
-153 287 -702 -747 0
-287 702 0
-287 747 0
153 -287 0
288 -701 -748 -790 -791 0
-288 791 0
-288 701 0
-288 790 0
-288 748 0
-43 -71 -75 289 652 0
-289 -652 0
75 -289 0
71 -289 0
43 -289 0
290 291 294 -296 -300 0
-290 -291 0
-290 300 0
-290 296 0
-290 -294 0
291 292 795 0
138 291 795 0
291 293 795 0
-291 -795 0
-138 -291 -292 -293 0
292 637 638 0
-292 -637 0
-292 -638 0
293 569 627 628 0
-293 -569 0
-293 -628 0
-293 -627 0
146 294 662 0
51 294 662 0
294 295 662 0
-294 -662 0
-51 -146 -294 -295 0
295 559 622 623 0
-295 -559 0
-295 -623 0
-295 -622 0
296 297 -599 0
-113 296 297 0
-296 -297 0
113 -296 599 0
-78 -83 297 -298 -299 0
-297 299 0
78 -297 0
-297 298 0
83 -297 0
298 -713 -732 -750 -755 0
-298 755 0
-298 713 0
-298 750 0
-298 732 0
299 579 580 0
-299 -579 0
-299 -580 0
300 302 -304 -599 0
300 -301 302 -304 0
-300 304 0
-300 -302 0
-300 301 599 0
-50 301 576 597 598 0
50 -301 0
-301 -598 0
-301 -576 0
-301 -597 0
302 -303 -745 746 0
-302 745 0
-302 -746 0
-302 303 0
303 -733 -734 -735 -740 0
-303 740 0
-303 733 0
-303 735 0
-303 734 0
304 305 -727 0
304 305 307 0
304 305 726 0
-304 -305 0
-304 -307 -726 727 0
305 306 -581 0
305 -529 -581 688 0
-305 581 0
-305 -306 529 0
-305 -306 -688 0
306 528 530 0
306 -682 -685 0
306 530 -685 0
306 528 -682 0
-306 -530 682 0
-306 -528 685 0
307 -714 -715 -716 -721 0
-307 721 0
-307 714 0
-307 716 0
-307 715 0
-265 308 -309 0
-265 308 -317 318 0
265 -308 0
-308 309 -318 0
-308 309 317 0
309 -313 519 520 0
309 -310 519 520 0
-309 -519 0
-309 -520 0
-309 310 313 0
310 -311 -312 -732 -756 0
-310 312 0
-310 732 0
-310 311 0
-310 756 0
311 579 580 -757 0
-311 757 0
-311 -580 0
-311 -579 0
312 -774 -794 -799 0
-312 774 0
-312 794 0
-312 799 0
-83 313 -314 -315 -316 0
-313 316 0
83 -313 0
-313 315 0
-313 314 0
314 -786 -787 0
-314 786 0
-314 787 0
315 -667 -672 -677 0
-315 667 0
-315 672 0
-315 677 0
316 524 579 -800 -801 0
-316 -524 0
-316 801 0
-316 800 0
-316 -579 0
317 520 521 0
-317 -520 0
-317 -521 0
318 319 322 0
307 318 319 0
311 318 319 0
-318 -319 0
-307 -311 -318 -322 0
319 -320 -782 -814 -815 0
-319 320 0
-319 782 0
-319 815 0
-319 814 0
-83 320 -321 -719 -781 0
-320 321 0
-320 719 0
83 -320 0
-320 781 0
-162 321 -717 -718 0
-321 717 0
-321 718 0
162 -321 0
322 -726 -756 -808 -809 0
-322 809 0
-322 726 0
-322 808 0
-322 756 0
317 323 -330 0
323 324 -330 0
323 -325 -330 0
-323 330 0
-317 -323 -324 325 0
324 522 524 0
-324 -522 0
-324 -524 0
325 326 329 0
303 325 326 0
311 325 326 0
-325 -326 0
-303 -311 -325 -329 0
326 -327 -764 -806 -807 0
-326 327 0
-326 764 0
-326 807 0
-326 806 0
-83 327 -328 -738 -763 0
-327 328 0
-327 738 0
83 -327 0
-327 763 0
-162 328 -736 -737 0
-328 736 0
-328 737 0
162 -328 0
329 -745 -756 -812 -813 0
-329 813 0
-329 745 0
-329 812 0
-329 756 0
330 332 -776 0
-94 330 -331 332 0
-330 -332 0
-330 331 776 0
94 -330 776 0
-41 331 540 562 568 0
41 -331 0
-331 -568 0
-331 -540 0
-331 -562 0
180 332 796 0
101 332 796 0
331 332 796 0
-332 -796 0
-101 -180 -331 -332 0
333 -334 -381 -384 -386 0
-333 386 0
-333 334 0
-333 384 0
-333 381 0
334 -335 -357 -363 -368 0
-334 368 0
-334 335 0
-334 363 0
-334 357 0
335 -336 -341 -344 -347 0
-335 347 0
-335 336 0
-335 344 0
-335 341 0
336 -337 340 -795 0
-136 336 -337 340 0
-336 337 0
-336 -340 0
136 -336 795 0
337 338 -668 0
-292 337 338 606 0
-337 -338 0
-337 -606 668 0
292 -337 668 0
338 -339 581 0
338 -526 581 686 0
-338 -581 0
-338 339 -686 0
-338 339 526 0
339 -527 683 0
-339 527 0
-339 -683 0
50 340 818 0
340 -688 818 0
-340 -818 0
-50 -340 688 0
341 343 -739 0
341 342 343 0
-341 -343 0
-341 -342 739 0
342 -736 -737 -738 0
-342 736 0
-342 737 0
-342 738 0
-160 343 -699 -708 712 0
160 -343 0
-343 699 0
-343 708 0
-343 -712 0
344 345 -768 0
344 346 -762 0
344 -762 -768 0
344 345 346 0
-344 -346 768 0
-344 -345 762 0
345 -733 -734 -735 0
-345 733 0
-345 734 0
-345 735 0
346 -714 -715 -716 0
-346 714 0
-346 715 0
-346 716 0
347 -348 -350 -352 -354 0
-347 354 0
-347 348 0
-347 352 0
-347 350 0
-19 348 349 0
348 349 -700 -799 0
-348 -349 0
19 -348 700 0
19 -348 799 0
168 349 715 0
349 -600 715 0
-349 -715 0
-168 -349 600 0
314 350 351 0
350 351 -788 0
315 350 351 0
-350 -351 0
-314 -315 -350 788 0
351 -691 701 0
17 351 701 0
351 -625 701 0
-351 -701 0
-17 -351 625 691 0
352 353 -757 0
-153 -317 352 353 0
-352 -353 0
317 -352 757 0
153 -352 757 0
-342 353 -763 -764 765 0
342 -353 0
-353 763 0
-353 764 0
-353 -765 0
354 356 -687 0
-23 354 -355 356 0
-354 -356 0
-354 355 687 0
23 -354 687 0
355 541 543 0
-355 -541 0
-355 -543 0
356 -678 760 0
17 356 760 0
356 -663 760 0
-356 -760 0
-17 -356 663 678 0
357 358 -361 -662 0
-48 357 358 -361 0
-357 361 0
-357 -358 0
48 -357 662 0
358 -359 -360 -748 749 0
-358 360 0
-358 748 0
-358 359 0
-358 -749 0
359 -702 -747 0
-359 702 0
-359 747 0
360 -700 -701 0
-360 700 0
-360 701 0
361 362 -724 0
-242 361 362 636 0
-361 -362 0
-361 -636 724 0
242 -361 724 0
362 -762 771 0
17 362 771 0
362 -676 771 0
-362 -771 0
-17 -362 676 762 0
363 -364 -366 -665 0
154 363 -364 -366 0
-363 366 0
-363 364 0
-154 -363 665 0
364 -365 -621 0
364 -365 590 0
-364 365 0
-364 -590 621 0
365 -673 676 0
365 552 -681 0
365 552 676 0
365 -673 -681 0
-365 -552 673 0
-365 -676 681 0
-22 366 -736 0
366 -367 -632 0
366 -632 -736 0
-22 366 -367 0
-366 367 736 0
22 -366 632 0
-17 367 707 0
-367 -707 0
17 -367 0
368 -369 -371 -375 -380 0
-368 380 0
-368 369 0
-368 375 0
-368 371 0
315 369 -720 0
369 370 -678 0
369 -678 -720 0
315 369 370 0
-369 -370 720 0
-315 -369 678 0
370 -717 -718 -719 0
-370 717 0
-370 718 0
-370 719 0
371 372 373 0
371 373 -761 0
154 371 373 0
-371 -373 0
-154 -371 -372 761 0
372 -759 -760 0
-372 759 0
-372 760 0
373 -374 -728 -730 731 0
-373 374 0
-373 728 0
-373 730 0
-373 -731 0
374 -681 -692 -693 0
-374 681 0
-374 692 0
-374 693 0
375 377 379 0
375 376 377 0
375 377 -773 0
-375 -377 0
-375 -376 -379 773 0
376 -771 -772 0
-376 771 0
-376 772 0
377 -378 -767 -769 770 0
-377 378 0
-377 767 0
-377 769 0
-377 -770 0
378 -722 -723 -724 0
-378 722 0
-378 723 0
-378 724 0
379 -741 -742 -743 0
-379 741 0
-379 742 0
-379 743 0
160 380 -725 0
378 380 -729 0
380 -725 -729 0
160 378 380 0
-378 -380 725 0
-160 -380 729 0
381 382 -767 0
-208 381 382 720 0
-381 -382 0
-381 -720 767 0
208 -381 767 0
15 382 383 0
382 383 -636 0
382 383 -671 0
-382 -383 0
-15 -382 636 671 0
383 -735 -736 0
-16 383 -735 0
-383 735 0
16 -383 736 0
384 385 -772 0
-134 384 385 739 0
-384 -385 0
-384 -739 772 0
134 -384 772 0
109 385 721 0
385 -720 721 0
-385 -721 0
-109 -385 720 0
386 -387 -392 -394 -396 0
-386 396 0
-386 387 0
-386 394 0
-386 392 0
387 -388 390 -694 0
374 387 -388 390 0
-387 388 0
-387 -390 0
-374 -387 694 0
388 389 -744 0
379 388 389 0
-388 -389 0
-379 -388 744 0
-82 -84 389 -679 680 0
84 -389 0
-389 679 0
82 -389 0
-389 -680 0
390 391 726 0
390 -725 726 0
-390 -726 0
-390 -391 725 0
391 601 615 0
-391 -601 0
-391 -615 0
-19 392 393 0
392 393 -738 -741 0
-392 -393 0
19 -392 738 0
19 -392 741 0
391 393 666 0
393 -665 666 0
-393 -666 0
-391 -393 665 0
394 395 -738 0
-168 394 395 671 0
-394 -395 0
-394 -671 738 0
168 -394 738 0
-370 395 -781 -782 783 0
370 -395 0
-395 781 0
-395 782 0
-395 -783 0
396 -397 -672 0
-208 396 -397 671 0
-396 397 0
-396 -671 672 0
208 -396 672 0
397 398 -400 -647 0
-15 397 398 -400 0
-397 400 0
-397 -398 0
15 -397 647 0
398 -399 584 0
398 -527 584 587 0
-398 -584 0
-398 399 -587 0
-398 399 527 0
399 -525 598 0
-399 525 0
-399 -598 0
-15 400 401 0
400 401 -626 -763 0
-400 -401 0
15 -400 626 0
15 -400 763 0
167 401 699 0
-401 -699 0
-167 -401 0
402 -403 -437 -441 -443 0
-402 443 0
-402 403 0
-402 441 0
-402 437 0
403 -404 -413 -418 -428 0
-403 428 0
-403 404 0
-403 418 0
-403 413 0
404 -405 -407 -409 -411 0
-404 411 0
-404 405 0
-404 409 0
-404 407 0
405 406 -699 0
405 406 604 694 0
-405 -406 0
-405 -694 699 0
-405 -604 699 0
406 -547 583 610 0
-406 547 0
-406 -610 0
-406 -583 0
407 408 -584 0
407 408 -593 0
407 408 526 0
-407 -408 0
-407 -526 584 593 0
408 528 -529 602 0
-408 -528 0
-408 529 0
-408 -602 0
409 410 -581 0
409 410 -591 0
409 410 547 0
-409 -410 0
-409 -547 581 591 0
410 -539 -581 595 0
-410 539 0
-410 581 0
-410 -595 0
411 412 584 0
411 412 -592 0
411 412 528 0
-411 -412 0
-411 -528 -584 592 0
412 -548 -581 590 0
-412 548 0
-412 581 0
-412 -590 0
413 -414 -416 -722 0
-44 413 -414 -416 0
-413 416 0
-413 414 0
44 -413 722 0
414 415 -530 0
414 415 -601 0
414 415 528 0
-414 -415 0
-414 -528 530 601 0
415 -589 -594 -599 600 0
-415 599 0
-415 -600 0
-415 589 0
-415 594 0
416 417 526 0
416 417 -525 0
416 417 -604 0
-416 -417 0
-416 525 -526 604 0
417 -608 -611 -614 615 0
-417 614 0
-417 -615 0
-417 608 0
-417 611 0
418 -419 424 425 -426 0
-418 426 0
-418 -425 0
-418 419 0
-418 -424 0
419 -420 423 -607 0
419 -420 422 423 0
-419 420 0
-419 -423 0
-419 -422 607 0
420 421 584 0
420 421 -597 0
420 421 529 0
-420 -421 0
-420 -529 -584 597 0
421 -727 780 0
421 -749 780 0
-421 -780 0
-421 727 749 0
422 -556 583 0
-422 556 0
-422 -583 0
423 -530 -584 588 0
-423 530 0
-423 584 0
-423 -588 0
424 -639 -642 -645 646 0
-424 645 0
-424 -646 0
-424 639 0
-424 642 0
425 -795 -796 -797 798 0
-425 797 0
-425 -798 0
-425 795 0
-425 796 0
426 427 -779 0
426 427 601 778 0
-426 -427 0
-426 -778 779 0
-426 -601 779 0
427 -749 804 0
427 -765 804 0
-427 -804 0
-427 749 765 0
428 -429 -431 -433 -435 0
-428 435 0
-428 429 0
-428 433 0
-428 431 0
429 430 -803 0
429 430 712 788 0
-429 -430 0
-429 -788 803 0
-429 -712 803 0
430 -665 787 0
430 -671 787 0
-430 -787 0
-430 665 671 0
431 432 -581 0
431 432 -596 0
431 432 538 0
-431 -432 0
-431 -538 581 596 0
432 -557 -581 585 0
-432 557 0
-432 581 0
-432 -585 0
433 434 527 0
433 434 -526 0
433 434 -603 0
-433 -434 0
-433 526 -527 603 0
434 -731 805 0
434 -783 805 0
-434 -805 0
-434 731 783 0
435 436 -581 0
435 436 -586 0
435 436 556 0
-435 -436 0
-435 -556 581 586 0
436 -712 806 0
436 -746 806 0
-436 -806 0
-436 712 746 0
437 438 -439 -667 0
-134 437 438 -439 0
-437 439 0
-437 -438 0
134 -437 667 0
15 438 820 0
438 -819 820 0
-438 -820 0
-15 -438 819 0
439 440 -717 0
-166 439 440 0
-439 -440 0
166 -439 717 0
367 440 782 0
440 -725 782 0
16 440 782 0
-440 -782 0
-16 -367 -440 725 0
441 442 -756 0
-260 441 442 523 0
-441 -442 0
-441 -523 756 0
260 -441 756 0
391 442 737 0
442 -691 737 0
19 442 737 0
-442 -737 0
-19 -391 -442 691 0
-208 443 -714 0
443 -444 -648 0
443 -648 -714 0
-208 443 -444 0
-443 444 714 0
208 -443 648 0
-15 444 636 0
-444 -636 0
15 -444 0
445 -446 -484 -502 -510 0
-445 510 0
-445 446 0
-445 502 0
-445 484 0
446 -447 -466 -475 -480 0
-446 480 0
-446 447 0
-446 475 0
-446 466 0
447 -448 -457 -462 -464 0
-447 464 0
-447 448 0
-447 462 0
-447 457 0
448 -449 -451 -453 -455 0
-448 455 0
-448 449 0
-448 453 0
-448 451 0
449 450 -800 0
449 450 680 731 0
-449 -450 0
-449 -731 800 0
-449 -680 800 0
450 -676 710 0
450 -698 710 0
-450 -710 0
-450 676 698 0
451 452 -711 0
451 452 658 707 0
-451 -452 0
-451 -707 711 0
-451 -658 711 0
452 -663 747 0
452 -694 747 0
-452 -747 0
-452 663 694 0
453 454 -791 0
453 454 712 761 0
-453 -454 0
-453 -761 791 0
-453 -712 791 0
454 -731 790 0
454 -770 790 0
-454 -790 0
-454 731 770 0
360 455 456 0
455 456 -703 0
455 456 702 0
-455 -456 0
-360 -455 -702 703 0
456 -695 -696 -697 698 0
-456 697 0
-456 -698 0
-456 695 0
-456 696 0
457 458 459 460 461 0
-457 -461 0
-457 -460 0
-457 -458 0
-457 -459 0
458 -775 -776 -777 778 0
-458 777 0
-458 -778 0
-458 775 0
-458 776 0
459 -751 -752 -753 754 0
-459 753 0
-459 -754 0
-459 751 0
-459 752 0
460 -604 716 0
460 -615 716 0
-460 -716 0
-460 604 615 0
461 -680 813 0
461 -765 813 0
-461 -813 0
-461 680 765 0
462 463 -810 0
462 463 746 761 0
-462 -463 0
-462 -761 810 0
-462 -746 810 0
463 -727 812 0
463 -773 812 0
-463 -812 0
-463 727 773 0
464 465 -808 0
464 465 746 770 0
-464 -465 0
-464 -770 808 0
-464 -746 808 0
465 -605 -626 -647 758 0
-465 647 0
-465 -758 0
-465 605 0
-465 626 0
466 -467 -469 -471 -473 0
-466 473 0
-466 467 0
-466 471 0
-466 469 0
467 468 -581 0
467 468 -689 0
467 468 525 0
-467 -468 0
-467 -525 581 689 0
468 -684 -687 -690 691 0
-468 690 0
-468 -691 0
-468 684 0
-468 687 0
469 470 -647 0
469 470 636 646 0
-469 -470 0
-469 -646 647 0
-469 -636 647 0
470 -651 -654 -657 658 0
-470 657 0
-470 -658 0
-470 651 0
-470 654 0
471 -472 -740 0
471 -472 600 604 0
-471 472 0
-471 -604 740 0
-471 -600 740 0
472 552 606 0
472 -651 -704 0
472 552 -704 0
472 606 -651 0
-472 -552 651 0
-472 -606 704 0
473 474 -784 0
473 474 761 783 0
-473 -474 0
-473 -783 784 0
-473 -761 784 0
474 -629 -632 -635 636 0
-474 635 0
-474 -636 0
-474 629 0
-474 632 0
475 -477 479 -642 0
475 -476 -477 479 0
-475 477 0
-475 -479 0
-475 476 642 0
476 542 543 0
-476 -542 0
-476 -543 0
477 478 -719 0
477 478 663 707 0
-477 -478 0
-477 -707 719 0
-477 -663 719 0
478 -636 718 0
478 -691 718 0
-478 -718 0
-478 636 691 0
479 -601 741 0
479 -671 741 0
-479 -741 0
-479 601 671 0
480 -481 483 -733 0
-391 480 -481 483 0
-480 481 0
-480 -483 0
391 -480 733 0
481 482 583 0
481 482 -622 0
481 482 529 0
-481 -482 0
-481 -529 -583 622 0
482 -525 583 623 0
-482 525 0
-482 -623 0
-482 -583 0
483 -615 626 0
483 -625 626 0
-483 -626 0
-483 615 625 0
484 -485 -494 -498 -500 0
-484 500 0
-484 485 0
-484 498 0
-484 494 0
485 -486 -488 -490 -492 0
-485 492 0
-485 486 0
-485 490 0
-485 488 0
486 487 -774 0
486 487 770 773 0
-486 -487 0
-486 -773 774 0
-486 -770 774 0
487 -680 713 0
487 -712 713 0
-487 -713 0
-487 680 712 0
488 489 -794 0
488 489 783 788 0
-488 -489 0
-488 -788 794 0
-488 -783 794 0
489 -668 -669 -670 671 0
-489 670 0
-489 -671 0
-489 668 0
-489 669 0
490 491 -750 0
490 491 746 749 0
-490 -491 0
-490 -749 750 0
-490 -746 750 0
491 -761 801 0
491 -773 801 0
-491 -801 0
-491 761 773 0
492 493 -766 0
492 493 761 765 0
-492 -493 0
-492 -765 766 0
-492 -761 766 0
493 -691 763 0
493 -762 763 0
-493 -763 0
-493 691 762 0
494 495 -496 -776 0
-73 494 495 -496 0
-494 496 0
-494 -495 0
73 -494 776 0
495 -618 -621 -624 625 0
-495 624 0
-495 -625 0
-495 618 0
-495 621 0
496 497 -732 0
496 497 727 731 0
-496 -497 0
-496 -731 732 0
-496 -727 732 0
497 -765 793 0
497 -788 793 0
-497 -793 0
-497 765 788 0
498 499 -785 0
498 499 680 749 0
-498 -499 0
-498 -749 785 0
-498 -680 785 0
499 -770 789 0
499 -788 789 0
-499 -789 0
-499 770 788 0
500 501 -584 0
500 501 -650 0
500 501 556 0
-500 -501 0
-500 -556 584 650 0
501 -676 786 0
501 -758 786 0
-501 -786 0
-501 676 758 0
502 -503 -504 -506 -508 0
-502 508 0
-502 503 0
-502 506 0
-502 504 0
-61 503 -700 0
-242 503 -695 0
503 -695 -700 0
-61 -242 503 0
242 -503 700 0
61 -503 695 0
504 505 -709 0
504 505 601 691 0
-504 -505 0
-504 -691 709 0
-504 -601 709 0
505 -773 807 0
505 -783 807 0
-505 -807 0
-505 773 783 0
506 507 -811 0
506 507 727 788 0
-506 -507 0
-506 -788 811 0
-506 -727 811 0
507 -712 814 0
507 -727 814 0
-507 -814 0
-507 712 727 0
508 509 -799 0
508 509 601 798 0
-508 -509 0
-508 -798 799 0
-508 -601 799 0
509 -680 809 0
509 -783 809 0
-509 -809 0
-509 680 783 0
510 -511 513 514 -515 0
-510 515 0
-510 -514 0
-510 511 0
-510 -513 0
511 512 -815 0
511 512 765 770 0
-511 -512 0
-511 -770 815 0
-511 -765 815 0
512 -660 -661 -662 663 0
-512 662 0
-512 -663 0
-512 660 0
-512 661 0
513 -704 -705 -706 707 0
-513 706 0
-513 -707 0
-513 704 0
-513 705 0
514 -673 -674 -675 676 0
-514 675 0
-514 -676 0
-514 673 0
-514 674 0
515 -516 518 -701 0
-16 515 -516 518 0
-515 516 0
-515 -518 0
16 -515 701 0
516 517 -792 0
516 517 731 746 0
-516 -517 0
-516 -746 792 0
-516 -731 792 0
517 -816 -817 -818 819 0
-517 818 0
-517 -819 0
-517 816 0
-517 817 0
518 -749 802 0
518 -773 802 0
-518 -802 0
-518 749 773 0
1 -2 0
-1 2 0
821 0

